results_rootrelaxation/bin018_050_010.srr.sol
solution status: optimal solution found
objective value:                                    0
_var127_                           0.0825896133087393 	(obj:0)
_var839_                           0.0586684188470672 	(obj:0)
_var2652_                           0.088745622228278 	(obj:0)
_var2656_                           0.162468969369691 	(obj:0)
_var2660_                          0.0412781828533526 	(obj:0)
_var2664_                           0.209542518915294 	(obj:0)
_var2666_                          0.0941837461134192 	(obj:0)
_var2667_                           0.021643252290756 	(obj:0)
_var2668_                          0.0478281571569763 	(obj:0)
_var2670_                          0.0765630575463571 	(obj:0)
_var2674_                           0.501045880631943 	(obj:0)
_var2679_                           0.112060216413049 	(obj:0)
_var2681_                          0.0664178691351062 	(obj:0)
_var2682_                           0.027736536697292 	(obj:0)
_var2688_                          0.0405670432943755 	(obj:0)
_var2699_                          0.0172017456260359 	(obj:0)
_var2703_                           0.273216465164563 	(obj:0)
_var2704_                           0.078641546478468 	(obj:0)
_var2705_                          0.0701998491840351 	(obj:0)
_var2706_                          0.0806268723497446 	(obj:0)
_var2709_                           0.110001996375255 	(obj:0)
_var2711_                          0.0670911246427143 	(obj:0)
_var2713_                            0.13601295897277 	(obj:0)
_var2714_                          0.0942952385346906 	(obj:0)
_var2715_                          0.0168888687864706 	(obj:0)
_var2716_                          0.0842427982910993 	(obj:0)
_var2717_                          0.0837482962142754 	(obj:0)
_var2719_                          0.0859006660103951 	(obj:0)
_var2728_                          0.0305909612378767 	(obj:0)
_var2732_                           0.230473331404457 	(obj:0)
_var2733_                           0.130798792482204 	(obj:0)
_var2736_                            0.22829298432155 	(obj:0)
_var2737_                           0.112135262020043 	(obj:0)
_var2738_                            0.27495432086811 	(obj:0)
_var2740_                          0.0372182825262913 	(obj:0)
_var2742_                           0.206341606927471 	(obj:0)
_var2744_                           0.114168072500705 	(obj:0)
_var2745_                           0.197790217491613 	(obj:0)
_var2749_                          0.0537207952322802 	(obj:0)
_var2750_                          0.0592735593845056 	(obj:0)
_var2751_                            0.13462114940481 	(obj:0)
_var2752_                           0.138733498932625 	(obj:0)
_var2754_                           0.314963577222001 	(obj:0)
_var2755_                           0.190872067608388 	(obj:0)
_var2756_                           0.306009881031298 	(obj:0)
_var2759_                          0.0706396822795352 	(obj:0)
_var2760_                          0.0839334992940093 	(obj:0)
_var2765_                           0.174405733326595 	(obj:0)
_var2767_                           0.060553051572444 	(obj:0)
_var2768_                          0.0367014440653063 	(obj:0)
_var2775_                           0.266700353858608 	(obj:0)
_var2777_                          0.0827903082282166 	(obj:0)
_var2784_                           0.354029066688995 	(obj:0)
_var2786_                           0.127495767124021 	(obj:0)
_var2790_                          0.0762583884870802 	(obj:0)
_var2791_                           0.100070388349589 	(obj:0)
_var2794_                         0.00098040381916013 	(obj:0)
_var2796_                           0.188449363545699 	(obj:0)
_var2803_                         0.00763042049345657 	(obj:0)
_var2805_                           0.110279035196035 	(obj:0)
_var2806_                           0.132304034287369 	(obj:0)
_var2808_                         0.00525475258561047 	(obj:0)
_var2809_                           0.161231845281057 	(obj:0)
_var2810_                          0.0178651836362485 	(obj:0)
_var2811_                           0.231023570527269 	(obj:0)
_var2812_                           0.374681543447337 	(obj:0)
_var2815_                          0.0536073665211665 	(obj:0)
_var2816_                           0.100101746596518 	(obj:0)
_var2818_                           0.112128349028422 	(obj:0)
_var2819_                           0.272472292900293 	(obj:0)
_var2825_                           0.070986036074786 	(obj:0)
_var2826_                           0.131603367928882 	(obj:0)
_var2828_                           0.139497531690945 	(obj:0)
_var2831_                           0.353765162405119 	(obj:0)
_var2832_                           0.231161607755272 	(obj:0)
_var2833_                           0.207612166625304 	(obj:0)
_var2837_                            0.20521152655431 	(obj:0)
_var2838_                           0.415073229839606 	(obj:0)
_var2839_                          0.0223695278659277 	(obj:0)
_var2840_                           0.121523085746586 	(obj:0)
_var2841_                          0.0450406454128208 	(obj:0)
_var2842_                            0.29123338398841 	(obj:0)
_var2845_                           0.134360013116305 	(obj:0)
_var2846_                           0.157960542664248 	(obj:0)
_var2847_                           0.109862445087727 	(obj:0)
_var2848_                           0.212742669123518 	(obj:0)
_var2852_                          0.0845995591530774 	(obj:0)
_var2853_                           0.111327230497054 	(obj:0)
_var2857_                          0.0176581915724761 	(obj:0)
_var2861_                         0.00269266324412713 	(obj:0)
_var2862_                           0.104609984848781 	(obj:0)
_var2863_                          0.0519335316048318 	(obj:0)
_var2866_                           0.128443059732672 	(obj:0)
_var2867_                           0.146281260038559 	(obj:0)
_var2868_                         0.00932404525059162 	(obj:0)
_var2871_                           0.252154565534819 	(obj:0)
_var2873_                          0.0392227613658098 	(obj:0)
_var2875_                           0.147447457975322 	(obj:0)
_var2876_                            0.07752415559125 	(obj:0)
_var2877_                           0.093593592385927 	(obj:0)
_var2880_                           0.129931841043638 	(obj:0)
_var2881_                          0.0636935340827275 	(obj:0)
_var2882_                           0.104900239950076 	(obj:0)
_var2883_                           0.120886611467737 	(obj:0)
_var2885_                         0.00720989163131108 	(obj:0)
_var2886_                          0.0629027864840485 	(obj:0)
_var2887_                           0.124294300084593 	(obj:0)
_var2888_                          0.0441570790364636 	(obj:0)
_var2891_                          0.0691467741885913 	(obj:0)
_var2893_                           0.249440165338285 	(obj:0)
_var2895_                         0.00501326880136197 	(obj:0)
_var2897_                           0.111702958850493 	(obj:0)
_var2899_                         0.00252664283176842 	(obj:0)
_var2900_                            0.10477959461438 	(obj:0)
_var2902_                           0.223754672681655 	(obj:0)
_var2906_                           0.104220974844304 	(obj:0)
_var2907_                          0.0241145721544011 	(obj:0)
_var2908_                          0.0383369217036555 	(obj:0)
_var2909_                           0.231985398267092 	(obj:0)
_var2910_                          0.0176948853897689 	(obj:0)
_var2915_                           0.104244182649451 	(obj:0)
_var2916_                           0.103292398103131 	(obj:0)
_var2917_                          0.0101129729295748 	(obj:0)
_var2919_                          0.0718897713388669 	(obj:0)
_var2921_                           0.103810619908999 	(obj:0)
_var2923_                           0.118683987827169 	(obj:0)
_var2924_                          0.0149531767829432 	(obj:0)
_var2926_                          0.0580607145627171 	(obj:0)
_var2927_                          0.0579216843353212 	(obj:0)
_var2928_                          0.0622806661649386 	(obj:0)
_var2929_                           0.176564139316572 	(obj:0)
_var2933_                            0.10594974653373 	(obj:0)
_var2934_                           0.097257467111183 	(obj:0)
_var2935_                          0.0600300063176093 	(obj:0)
_var2938_                           0.037826768536145 	(obj:0)
_var2939_                           0.097322417026179 	(obj:0)
_var2943_                          0.0244306217852576 	(obj:0)
_var2945_                           0.122121205010896 	(obj:0)
_var2946_                         0.00822156129694579 	(obj:0)
_var2948_                          0.0596215098887479 	(obj:0)
_var2950_                           0.116823141052657 	(obj:0)
_var2952_                           0.217273848560725 	(obj:0)
_var2953_                          0.0451890763407161 	(obj:0)
_var2954_                         0.00653375459187638 	(obj:0)
_var2955_                         0.00101415227510145 	(obj:0)
_var2961_                          0.0120293934709437 	(obj:0)
_var2963_                          0.0116160138657951 	(obj:0)
_var2964_                          0.0541342732529922 	(obj:0)
_var2966_                           0.114410375100096 	(obj:0)
_var2968_                         0.00567814448219693 	(obj:0)
_var2970_                          0.0655891592832536 	(obj:0)
_var2973_                            0.10565147300737 	(obj:0)
